4 5 1.7
3 1 1 147 2 4 140 2 130 2 4 150 5 160
3 2 1 214 3 150 2 3 87 2 66 1 5 178
3 2 1 87 2 62 1 3 180 2 4 190 5 100
3 2 1 87 2 65 1 5 173 2 4 145 3 136
0 3 5 7 9 14
15 0 3 5 8 12
13 15 0 3 6 10
11 13 15 0 4 8
7 9 11 13 0 5
4 6 8 10 13 0